g3 0 1 0	# problem d4n12R0R7d005d05
 12 6 1 0 0	# vars, constraints, objectives, ranges, eqns
 4 1	# nonlinear constraints, objectives
 0 0	# network constraints: nonlinear, linear
 12 12 12	# nonlinear vars in constraints, objectives, both
 0 0 0 1	# linear network variables; functions; arith, flags
 0 0 0 0 0	# discrete variables: binary, integer, nonlinear (b,c,o)
 72 12	# nonzeros in Jacobian, gradients
 0 0	# max name lengths: constraints, variables
 0 0 0 0 0	# common exprs: b,c,o,c1,o1
b
0 0.18 2.43
0 0.55 2.51
0 0.4 2.57
0 0.61 2.04
0 0.95 2.59
0 0.41 2.66
0 0.55 2.98
0 0.88 2.57
0 0.95 2.94
0 0.58 2.29
0 0.69 2.3
0 0.41 2.45
r
2 143.933
2 298.909
2 1833.11
2 70.267
2 63.716
2 50.036
C0
o54
3
o2
o2
n2.51
v0
v1
o2
o2
n4.49
v2
v4
o2
o2
n9.33
v3
v10
C1
o54
25
o2
o2
n9.52
v0
v1
o2
o2
n7.51
v2
v4
o2
o2
n9.63
v3
v10
o2
o2
o2
n4.73
v0
v0
v7
o2
o2
o2
n7.82
v0
v2
v2
o2
o2
o2
n3.22
v0
v2
v7
o16
o2
o2
o2
n5.22
v0
v2
v9
o2
o2
o2
n4.59
v0
v7
v11
o2
o2
o2
n0.94
v1
v1
v11
o16
o2
o2
o2
n4.83
v1
v2
v10
o2
o2
o2
n2.13
v1
v3
v5
o2
o2
o2
n6.19
v1
v3
v11
o2
o2
o2
n3.02
v1
v4
v9
o2
o2
o2
n2.2
v1
v9
v11
o2
o2
o2
n2.47
v2
v3
v8
o16
o2
o2
o2
n7.33
v2
v8
v9
o2
o2
o2
n3.78
v3
v3
v8
o2
o2
o2
n8
v3
v7
v9
o2
o2
o2
n5.92
v3
v8
v9
o16
o2
o2
o2
n6.36
v3
v9
v9
o2
o2
o2
n0.31
v4
v5
v10
o2
o2
o2
n3.51
v4
v8
v11
o2
o2
o2
n2.08
v5
v7
v7
o2
o2
o2
n3.62
v5
v7
v10
o2
o2
o2
n0.03
v5
v10
v11
C2
o54
90
o16
o2
o2
n9.96
v0
v1
o2
o2
n2.52
v2
v4
o2
o2
n6.8
v3
v10
o2
o2
o2
n5.21
v0
v0
v7
o2
o2
o2
n9.06
v0
v2
v2
o2
o2
o2
n8.71
v0
v2
v7
o2
o2
o2
n8.21
v0
v2
v9
o2
o2
o2
n2.73
v0
v7
v11
o2
o2
o2
n9.6
v1
v1
v11
o2
o2
o2
n5.01
v1
v2
v10
o2
o2
o2
n9.92
v1
v3
v5
o2
o2
o2
n1.37
v1
v3
v11
o16
o2
o2
o2
n1.05
v1
v4
v9
o2
o2
o2
n2.35
v1
v9
v11
o2
o2
o2
n1.62
v2
v3
v8
o16
o2
o2
o2
n0.24
v2
v8
v9
o2
o2
o2
n3.05
v3
v3
v8
o2
o2
o2
n5.67
v3
v7
v9
o2
o2
o2
n1.52
v3
v8
v9
o2
o2
o2
n7.88
v3
v9
v9
o2
o2
o2
n2.47
v4
v5
v10
o2
o2
o2
n7.54
v4
v8
v11
o2
o2
o2
n9.12
v5
v7
v7
o2
o2
o2
n6.48
v5
v7
v10
o2
o2
o2
n1.74
v5
v10
v11
o2
o2
o2
o2
n3.05
v0
v0
v0
v4
o2
o2
o2
o2
n9.06
v0
v0
v2
v7
o16
o2
o2
o2
o2
n7.45
v0
v1
v1
v2
o2
o2
o2
o2
n8.43
v0
v1
v6
v6
o2
o2
o2
o2
n5.95
v0
v2
v6
v7
o2
o2
o2
o2
n6.39
v0
v3
v3
v6
o2
o2
o2
o2
n8.1
v0
v3
v4
v5
o2
o2
o2
o2
n6.05
v0
v5
v5
v5
o2
o2
o2
o2
n6.01
v0
v5
v5
v11
o2
o2
o2
o2
n2.98
v0
v5
v9
v9
o2
o2
o2
o2
n9.71
v0
v6
v8
v10
o2
o2
o2
o2
n6.11
v0
v7
v7
v8
o16
o2
o2
o2
o2
n7.7
v0
v7
v7
v9
o2
o2
o2
o2
n5.21
v0
v8
v10
v10
o2
o2
o2
o2
n6.75
v0
v9
v9
v9
o2
o2
o2
o2
n1.49
v1
v1
v2
v8
o2
o2
o2
o2
n0.01
v1
v1
v4
v10
o2
o2
o2
o2
n2.95
v1
v1
v5
v8
o2
o2
o2
o2
n7.41
v1
v1
v5
v9
o2
o2
o2
o2
n0.96
v1
v1
v7
v11
o2
o2
o2
o2
n7.63
v1
v1
v10
v11
o2
o2
o2
o2
n9.72
v1
v2
v2
v6
o2
o2
o2
o2
n5.36
v1
v2
v5
v6
o16
o2
o2
o2
o2
n5.04
v1
v2
v7
v10
o2
o2
o2
o2
n3.31
v1
v2
v10
v10
o16
o2
o2
o2
o2
n4.15
v1
v3
v5
v5
o2
o2
o2
o2
n2.72
v1
v3
v6
v10
o2
o2
o2
o2
n3.02
v1
v3
v8
v9
o2
o2
o2
o2
n1.52
v1
v4
v5
v6
o2
o2
o2
o2
n2.68
v1
v4
v6
v6
o2
o2
o2
o2
n4.37
v1
v4
v10
v10
o2
o2
o2
o2
n1.33
v1
v5
v6
v8
o2
o2
o2
o2
n3.3
v1
v7
v9
v11
o2
o2
o2
o2
n3.49
v2
v2
v3
v10
o2
o2
o2
o2
n3.42
v2
v2
v6
v6
o2
o2
o2
o2
n3.09
v2
v2
v6
v8
o16
o2
o2
o2
o2
n2.4
v2
v3
v3
v10
o2
o2
o2
o2
n1.72
v2
v4
v10
v11
o2
o2
o2
o2
n8
v2
v5
v7
v7
o2
o2
o2
o2
n8.92
v2
v5
v8
v11
o2
o2
o2
o2
n2.67
v2
v7
v7
v8
o2
o2
o2
o2
n5.87
v2
v9
v10
v11
o16
o2
o2
o2
o2
n9.22
v3
v3
v4
v10
o2
o2
o2
o2
n9.05
v3
v3
v6
v11
o2
o2
o2
o2
n6.69
v3
v4
v4
v4
o2
o2
o2
o2
n5.56
v3
v6
v7
v7
o2
o2
o2
o2
n0.48
v3
v6
v8
v11
o2
o2
o2
o2
n6.56
v3
v8
v9
v11
o16
o2
o2
o2
o2
n5.69
v4
v4
v6
v10
o2
o2
o2
o2
n0.41
v4
v4
v7
v10
o2
o2
o2
o2
n7.95
v4
v4
v8
v10
o2
o2
o2
o2
n2.06
v4
v4
v10
v10
o2
o2
o2
o2
n0.59
v4
v5
v6
v10
o16
o2
o2
o2
o2
n0.3
v4
v5
v8
v11
o2
o2
o2
o2
n2.32
v4
v5
v9
v11
o2
o2
o2
o2
n9.41
v4
v6
v10
v11
o2
o2
o2
o2
n4.47
v4
v7
v8
v10
o2
o2
o2
o2
n6.75
v4
v8
v11
v11
o16
o2
o2
o2
o2
n1.84
v5
v7
v9
v11
o2
o2
o2
o2
n2.86
v5
v7
v10
v11
o2
o2
o2
o2
n6.19
v7
v8
v9
v9
o16
o2
o2
o2
o2
n5.66
v7
v8
v9
v11
o2
o2
o2
o2
n6.54
v8
v8
v8
v10
o2
o2
o2
o2
n5.32
v8
v8
v8
v11
o2
o2
o2
o2
n5.22
v9
v10
v10
v11
C3
o54
3
o2
o2
n9.58
v0
v1
o16
o2
o2
n7.52
v2
v4
o2
o2
n2.56
v3
v10
C4
n0
C5
n0
O0 0
o54
90
o2
o2
n7.9
v0
v1
o2
o2
n5.68
v2
v4
o2
o2
n3.35
v3
v10
o2
o2
o2
n0.53
v0
v0
v7
o2
o2
o2
n2.76
v0
v2
v2
o2
o2
o2
n3.83
v0
v2
v7
o2
o2
o2
n5.96
v0
v2
v9
o2
o2
o2
n3.41
v0
v7
v11
o2
o2
o2
n5.34
v1
v1
v11
o2
o2
o2
n5.43
v1
v2
v10
o2
o2
o2
n9.78
v1
v3
v5
o2
o2
o2
n2.96
v1
v3
v11
o2
o2
o2
n5.27
v1
v4
v9
o2
o2
o2
n3.97
v1
v9
v11
o2
o2
o2
n8.7
v2
v3
v8
o16
o2
o2
o2
n7.5
v2
v8
v9
o2
o2
o2
n6.25
v3
v3
v8
o2
o2
o2
n2.27
v3
v7
v9
o2
o2
o2
n3.17
v3
v8
v9
o2
o2
o2
n6.66
v3
v9
v9
o2
o2
o2
n6.28
v4
v5
v10
o2
o2
o2
n4.23
v4
v8
v11
o2
o2
o2
n5.97
v5
v7
v7
o2
o2
o2
n3.76
v5
v7
v10
o2
o2
o2
n9.08
v5
v10
v11
o2
o2
o2
o2
n7.88
v0
v0
v0
v4
o2
o2
o2
o2
n9.32
v0
v0
v2
v7
o2
o2
o2
o2
n9.45
v0
v1
v1
v2
o2
o2
o2
o2
n6.81
v0
v1
v6
v6
o2
o2
o2
o2
n9.59
v0
v2
v6
v7
o2
o2
o2
o2
n3.19
v0
v3
v3
v6
o2
o2
o2
o2
n6.58
v0
v3
v4
v5
o2
o2
o2
o2
n4.01
v0
v5
v5
v5
o2
o2
o2
o2
n9.6
v0
v5
v5
v11
o16
o2
o2
o2
o2
n4.85
v0
v5
v9
v9
o2
o2
o2
o2
n6.36
v0
v6
v8
v10
o2
o2
o2
o2
n2.78
v0
v7
v7
v8
o2
o2
o2
o2
n8.78
v0
v7
v7
v9
o2
o2
o2
o2
n9.71
v0
v8
v10
v10
o2
o2
o2
o2
n5.7
v0
v9
v9
v9
o2
o2
o2
o2
n9.23
v1
v1
v2
v8
o2
o2
o2
o2
n6.64
v1
v1
v4
v10
o2
o2
o2
o2
n3.39
v1
v1
v5
v8
o2
o2
o2
o2
n5.88
v1
v1
v5
v9
o16
o2
o2
o2
o2
n1.19
v1
v1
v7
v11
o2
o2
o2
o2
n0.58
v1
v1
v10
v11
o2
o2
o2
o2
n5.04
v1
v2
v2
v6
o2
o2
o2
o2
n2.42
v1
v2
v5
v6
o2
o2
o2
o2
n7.14
v1
v2
v7
v10
o2
o2
o2
o2
n6.39
v1
v2
v10
v10
o2
o2
o2
o2
n1.91
v1
v3
v5
v5
o2
o2
o2
o2
n6.2
v1
v3
v6
v10
o16
o2
o2
o2
o2
n6.42
v1
v3
v8
v9
o2
o2
o2
o2
n0.02
v1
v4
v5
v6
o16
o2
o2
o2
o2
n5.14
v1
v4
v6
v6
o2
o2
o2
o2
n5.88
v1
v4
v10
v10
o2
o2
o2
o2
n0.66
v1
v5
v6
v8
o2
o2
o2
o2
n0.6
v1
v7
v9
v11
o2
o2
o2
o2
n6.9
v2
v2
v3
v10
o2
o2
o2
o2
n1.48
v2
v2
v6
v6
o2
o2
o2
o2
n6.47
v2
v2
v6
v8
o2
o2
o2
o2
n4.66
v2
v3
v3
v10
o2
o2
o2
o2
n8.62
v2
v4
v10
v11
o2
o2
o2
o2
n9.31
v2
v5
v7
v7
o2
o2
o2
o2
n9.42
v2
v5
v8
v11
o2
o2
o2
o2
n1.69
v2
v7
v7
v8
o2
o2
o2
o2
n0.66
v2
v9
v10
v11
o2
o2
o2
o2
n8.08
v3
v3
v4
v10
o2
o2
o2
o2
n9.19
v3
v3
v6
v11
o2
o2
o2
o2
n0.83
v3
v4
v4
v4
o2
o2
o2
o2
n3.04
v3
v6
v7
v7
o2
o2
o2
o2
n6.28
v3
v6
v8
v11
o2
o2
o2
o2
n6.06
v3
v8
v9
v11
o2
o2
o2
o2
n8.94
v4
v4
v6
v10
o2
o2
o2
o2
n7.56
v4
v4
v7
v10
o2
o2
o2
o2
n0.81
v4
v4
v8
v10
o16
o2
o2
o2
o2
n8.56
v4
v4
v10
v10
o2
o2
o2
o2
n9.85
v4
v5
v6
v10
o2
o2
o2
o2
n1.11
v4
v5
v8
v11
o2
o2
o2
o2
n6.9
v4
v5
v9
v11
o2
o2
o2
o2
n2.44
v4
v6
v10
v11
o16
o2
o2
o2
o2
n4.83
v4
v7
v8
v10
o16
o2
o2
o2
o2
n0.25
v4
v8
v11
v11
o2
o2
o2
o2
n9.2
v5
v7
v9
v11
o2
o2
o2
o2
n0.89
v5
v7
v10
v11
o2
o2
o2
o2
n4.36
v7
v8
v9
v9
o2
o2
o2
o2
n6.99
v7
v8
v9
v11
o2
o2
o2
o2
n4.16
v8
v8
v8
v10
o2
o2
o2
o2
n5.93
v8
v8
v8
v11
o2
o2
o2
o2
n1.18
v9
v10
v10
v11
k11
6
12
18
24
30
36
42
48
54
60
66
J0 12
0 3.4
1 2.12
2 8.6
3 7.12
4 5.35
5 5.36
6 5.77
7 7.2
8 5.6
9 9.18
10 6.17
11 3.61
J1 12
0 3.9
1 1.47
2 8.07
3 0.17
4 6.89
5 1.99
6 6.24
7 1.73
8 6.95
9 6.02
10 9.68
11 9.13
J2 12
0 5.65
1 4.15
2 4.1
3 4.98
4 5.37
5 3.75
6 1.44
7 7.33
8 7.18
9 7.14
10 3.1
11 6.1
J3 12
0 2.64
1 4.33
2 8.51
3 -5.27
4 1.32
5 4
6 3.66
7 5.08
8 7.99
9 2.79
10 1.12
11 3.63
J4 12
0 5.93
1 3.71
2 1.15
3 4.48
4 -2.51
5 0.11
6 5.62
7 5.48
8 2.61
9 2.05
10 9.13
11 4.12
J5 12
0 1.24
1 3.77
2 7.96
3 -7.83
4 1.21
5 4.94
6 1.03
7 4.45
8 3.24
9 -3.52
10 5.93
11 8.3
G0 12
0 -5.85
1 5.32
2 4.54
3 3.32
4 0.95
5 0.73
6 2.65
7 2.51
8 6.3
9 6.34
10 0.01
11 -6.18
